2025-11-09 22:24:45,530 INFO - Solving the line planning problem with ILP
2025-11-09 22:24:45,530 INFO - Building ILP model with empty trips
2025-11-09 22:24:45,531 INFO - Set parameter Username
2025-11-09 22:24:45,531 INFO - Set parameter LicenseID to value 2711114
2025-11-09 22:24:45,532 INFO - Academic license - for non-commercial use only - expires 2026-09-20
2025-11-09 22:24:45,532 INFO - Set parameter TimeLimit to value 86400
2025-11-09 22:24:45,544 INFO - Building flow variables
2025-11-09 22:24:45,718 INFO - Building one line per passenger constraints
2025-11-09 22:24:45,719 INFO - Building capacity constraints
2025-11-09 22:24:45,721 INFO - Building budget constraint
2025-11-09 22:24:46,123 INFO - Building flow conservation constraints
2025-11-09 22:24:47,406 INFO - Set parameter LogFile to value "Results\1_percent\budget_30000\stage_2\gurobi.log"
2025-11-09 22:24:47,754 INFO - Gurobi Optimizer version 12.0.3 build v12.0.3rc0 (win64 - Windows 11+.0 (26200.2))
2025-11-09 22:24:47,754 INFO - 
2025-11-09 22:24:47,754 INFO - CPU model: Intel(R) Core(TM) Ultra 7 265K, instruction set [SSE2|AVX|AVX2]
2025-11-09 22:24:47,754 INFO - Thread count: 20 physical cores, 20 logical processors, using up to 20 threads
2025-11-09 22:24:47,754 INFO - 
2025-11-09 22:24:47,754 INFO - Non-default parameters:
2025-11-09 22:24:47,754 INFO - TimeLimit  86400
2025-11-09 22:24:47,754 INFO - 
2025-11-09 22:24:47,754 INFO - Optimize a model with 109182 rows, 109283 columns and 436575 nonzeros
2025-11-09 22:24:47,756 INFO - Model fingerprint: 0xfbf073b7
2025-11-09 22:24:47,756 INFO - Variable types: 0 continuous, 109283 integer (383 binary)
2025-11-09 22:24:47,758 INFO - Coefficient statistics:
2025-11-09 22:24:47,759 INFO -   Matrix range     [1e+00, 2e+03]
2025-11-09 22:24:47,759 INFO -   Objective range  [1e+00, 1e+00]
2025-11-09 22:24:47,759 INFO -   Bounds range     [1e+00, 1e+00]
2025-11-09 22:24:47,759 INFO -   RHS range        [1e+00, 3e+04]
2025-11-09 22:24:47,763 INFO - Found heuristic solution: objective -0.0000000
2025-11-09 22:24:47,816 INFO - Presolve removed 108040 rows and 330 columns
2025-11-09 22:24:47,816 INFO - Presolve time: 0.05s
2025-11-09 22:24:47,818 INFO - Presolved: 1142 rows, 108953 columns, 328532 nonzeros
2025-11-09 22:24:47,849 INFO - Variable types: 0 continuous, 108953 integer (383 binary)
2025-11-09 22:24:47,877 INFO - Performing another presolve...
2025-11-09 22:24:48,210 INFO - Presolve removed 905 rows and 0 columns
2025-11-09 22:24:48,210 INFO - Presolve time: 0.33s
2025-11-09 22:24:48,323 INFO - Deterministic concurrent LP optimizer: primal and dual simplex
2025-11-09 22:24:48,323 INFO - Showing primal log only...
2025-11-09 22:24:48,323 INFO - 
2025-11-09 22:24:48,667 INFO - Concurrent spin time: 0.00s
2025-11-09 22:24:48,668 INFO - 
2025-11-09 22:24:48,668 INFO - Solved with primal simplex
2025-11-09 22:24:48,672 INFO - 
2025-11-09 22:24:48,672 INFO - Root relaxation: objective 1.121915e+02, 22442 iterations, 0.43 seconds (0.63 work units)
2025-11-09 22:24:48,767 INFO - 
2025-11-09 22:24:48,767 INFO -     Nodes    |    Current Node    |     Objective Bounds      |     Work
2025-11-09 22:24:48,767 INFO -  Expl Unexpl |  Obj  Depth IntInf | Incumbent    BestBd   Gap | It/Node Time
2025-11-09 22:24:48,767 INFO - 
2025-11-09 22:24:48,767 INFO -      0     0  112.19153    0  431   -0.00000  112.19153      -     -    1s
2025-11-09 22:24:48,818 INFO - H    0     0                       4.0000000  112.19153  2705%     -    1s
2025-11-09 22:24:48,827 INFO - H    0     0                      16.0000000  112.19153   601%     -    1s
2025-11-09 22:24:48,940 INFO - H    0     0                     107.0000000  112.19153  4.85%     -    1s
2025-11-09 22:24:48,949 INFO - H    0     0                     110.0000000  112.19153  1.99%     -    1s
2025-11-09 22:24:51,548 INFO -      0     0  111.58974    0  450  110.00000  111.58974  1.45%     -    3s
2025-11-09 22:24:52,134 INFO -      0     0  111.58974    0  420  110.00000  111.58974  1.45%     -    4s
2025-11-09 22:24:53,842 INFO -      0     0  111.58892    0  434  110.00000  111.58892  1.44%     -    6s
2025-11-09 22:24:54,821 INFO - H    0     0                     111.0000000  111.58892  0.53%     -    7s
2025-11-09 22:24:54,861 INFO - 
2025-11-09 22:24:54,861 INFO - Cutting planes:
2025-11-09 22:24:54,861 INFO -   Zero half: 8
2025-11-09 22:24:54,867 INFO - 
2025-11-09 22:24:54,867 INFO - Explored 1 nodes (41047 simplex iterations) in 7.11 seconds (7.15 work units)
2025-11-09 22:24:54,867 INFO - Thread count was 20 (of 20 available processors)
2025-11-09 22:24:54,867 INFO - 
2025-11-09 22:24:54,867 INFO - Solution count 6: 111 110 107 ... -0
2025-11-09 22:24:54,867 INFO - 
2025-11-09 22:24:54,867 INFO - Optimal solution found (tolerance 1.00e-04)
2025-11-09 22:24:54,868 INFO - Best objective 1.110000000000e+02, best bound 1.110000000000e+02, gap 0.0000%
2025-11-09 22:24:54,883 INFO - Execution time: 7.128976821899414
2025-11-09 22:24:54,883 INFO - Final solution: 111.0
2025-11-09 22:24:54,911 INFO - Exported used lines to Results\1_percent\budget_30000\stage_2\used_lines.csv
2025-11-09 22:24:54,917 INFO - Exported passenger assignments to Results\1_percent\budget_30000\stage_2\passenger_assignments.csv
2025-11-09 22:24:54,970 INFO - Exported flows to Results\1_percent\budget_30000\stage_2\flows.csv
